x low 7.00
p edge 8 28
n 101 1.00
n 100 1.00
n 99 1.00
n 98 1.00
n 97 1.00
n 96 1.00
n 95 1.00
n 93 1.00
e 100 101
e 99 101
e 99 100
e 98 101
e 98 100
e 98 99
e 97 101
e 97 100
e 97 99
e 97 98
e 96 101
e 96 100
e 96 99
e 96 98
e 96 97
e 95 100
e 95 99
e 95 98
e 95 97
e 95 96
e 93 101
e 93 100
e 93 98
e 93 97
e 93 96
e 93 95
e 101 95
e 99 93
